Code/Rooms/nwalls14-7.dzn
n = 14;

R =
[|0,0,0,6,6,6,6,6,6,0,0,0,0,0,
 |0,4,0,0,0,0,0,0,0,0,0,0,0,0,
 |0,4,0,0,0,4,4,4,4,0,0,1,0,0,
 |0,4,1,0,7,0,7,7,7,7,7,7,7,0,
 |6,4,0,0,7,0,6,0,0,0,0,0,0,0,
 |6,0,0,0,7,0,6,4,0,0,0,0,0,0,
 |6,0,0,0,7,0,6,4,0,0,0,0,0,0,
 |6,0,6,0,7,0,6,4,0,0,0,0,0,0,
 |6,0,6,0,7,0,6,4,0,0,0,0,0,0,
 |6,0,6,0,7,0,6,0,1,0,0,0,0,0,
 |0,0,6,0,0,0,0,0,0,0,0,0,0,0,
 |0,0,6,0,0,0,0,0,0,0,0,0,0,0,
 |0,0,6,0,0,5,5,5,5,5,0,0,0,0,
 |0,0,0,0,4,4,4,4,0,0,0,0,0,0,
 |];

